robust/generate/spp_dkp_Lefebvre_et_al_2026/src/shortest_path_8_2.kp
44
210

[3.81 0.48 3.4 1.65 1.64 2.78 1.8 1.87 2.33 3.24 4.39 2.08 1.95 0.52 0.99 4.37 4.31 4.03 2.95 0.98 2.91 0.64 2.09 3.99 1.18 3.04 3.94 0.68 2.57 0.73 0.79 0.47 0.93 2.08 3.63 4.52 3.68 1.72 2.35 0.27 3.25 0.33 4.03 3.31 3.8 3.24]

[77 11 77 60 43 49 76 61 89 51 39 58 30 7 29 17 74 56 11 28 57 88 80 100 97 84 41 51 22 96 26 29 54 95 9 99 18 64 3 51 6 3 1 48 85 69]
